c PicoSAT SAT Solver Version 959
c Copyright (c) 2006 - 2014 Armin Biere JKU Linz
c gcc -Wall -Wextra -DNDEBUG -O3 -fno-strict-aliasing
c
c using 2 as default phase
c
c parsing <stdin>
c parsed header 'p cnf 150 638'
c initialized 150 variables
c found 638 non trivial clauses
c
c random number generator seed 0
c 
c  seconds     variables   original    learned     agility
c         level        used      conflicts    limit          MB
c 
c s   0.0   0.0   150   0.0   638     0     0     0   0.0   0.0 
c 
c initial reduction limit 1000 clauses
c 
c +   0.0  16.3   150  94.0   638   100   100  1100   9.9   0.0 
c R   0.0  16.3   150  94.0   638   100   100  1100   9.9   0.0 
c +   0.0  12.2   150  98.7   638   221   221  1210  18.8   0.0 
c +   0.0  10.8   150  99.3   638   367   367  1331  24.4   0.1 
c N   0.0  10.7   150  99.3   638   400   400  1331  25.2   0.1 
c +   0.0  10.2   150  99.3   638   543   543  1464  28.7   0.1 
c +   0.0   9.5   150 100.0   638   755   755  1610  32.2   0.1 
c +   0.0   8.9   150 100.0   638  1011  1010  1771  32.8   0.1 
c N   0.0   8.5   150 100.0   638  1201  1198  1771  34.0   0.1 
c +   0.0   8.4   149 100.0   638  1320  1311  1948  33.6   0.1 
c N   0.0   8.5   149 100.0   638  1379  1369  1948  33.4   0.1 
c N   0.0   8.4   149 100.0   638  1681  1671  1948  32.9   0.1 
c +   0.0   8.4   149 100.0   638  1693  1683  2142  32.8   0.1 
c +   0.0   8.2   149 100.0   638  2144  2133  2356  33.0   0.2 
c N   0.0   8.1   149 100.0   627  2486   869  2356  32.9   0.1 
c N   0.0   8.1   148 100.0   627  2656  1036  2356  33.2   0.1 
c +   0.0   8.1   148 100.0   627  2689  1069  2591  32.9   0.1 
c 1   0.0   8.1   148 100.0   627  2709  1089  2591  32.9   0.1 
c 
c  seconds     variables   original    learned     agility
c         level        used      conflicts    limit          MB
c 
s SATISFIABLE
v -1 2 3 4 -5 -6 7 -8 9 -10 -11 12 -13 14 -15 -16 17 -18 -19 -20 -21 22 23 24
v -25 26 27 28 29 30 31 -32 33 -34 35 -36 -37 -38 39 40 41 -42 -43 -44 -45 46
v -47 48 -49 50 -51 -52 -53 -54 55 56 -57 58 -59 -60 -61 -62 63 -64 65 66 67
v -68 69 -70 -71 -72 -73 -74 -75 -76 -77 -78 -79 -80 -81 82 83 84 -85 -86 87
v -88 -89 -90 -91 92 93 -94 -95 96 97 98 99 -100 101 102 103 104 105 -106 107
v 108 109 -110 111 112 -113 114 -115 116 117 -118 119 -120 -121 -122 123 -124
v -125 -126 -127 128 129 -130 -131 -132 133 134 135 136 137 -138 -139 140 -141
v 142 143 144 145 -146 147 148 149 150 0
c
c 2 iterations
c 2 restarts
c 0 failed literals
c 2709 conflicts
c 3190 decisions
c 2 fixed variables
c 23330 learned literals
c 24.5% deleted literals
c 112129 propagations
c 572885 visits
c 100.0% variables used
c 0.0 seconds in library
c 4.7 megaprops/second
c 23.9 megavisits/second
c probing 0.0 seconds 0%
c 1 simplifications
c 1 reductions
c 0.1 MB recycled
c 0.2 MB maximally allocated
c 0.024000 seconds total run time
